benchmarks/VRPTW/TSPTW/solution/n80w20.001.txt.solution
1 18 38 40 30 59 32 35 54 65 78 20 80 51 39 10 3 34 2 7 49 9 4 75 67 55 15 16 6 50 8 56 74 45 57 77 23 31 72 25 36 26 61 63 48 21 33 22 62 14 19 5 66 53 42 47 17 29 68 69 60 58 41 24 44 73 79 37 13 46 52 28 71 27 43 12 11 70 76 81 64 
616
